c random formula
p cnf 10 35
8 4 -2 0
-4 9 6 0
8 6 10 0
-2 -1 4 0
-9 2 1 0
-10 2 9 0
7 -3 2 0
-10 7 -1 0
-1 -8 7 0
10 3 7 0
-3 2 -7 0
9 -1 -10 0
10 -9 1 0
6 4 1 0
1 -9 -2 0
3 -2 -10 0
9 5 -7 0
-3 -8 7 0
1 -7 -4 0
-7 4 -1 0
-4 7 -3 0
2 -10 -1 0
-3 7 1 0
2 -8 -1 0
-3 1 -8 0
4 2 -8 0
-3 5 -9 0
-10 -4 -6 0
9 -8 -3 0
-8 3 -7 0
2 3 -7 0
9 7 -8 0
6 2 -3 0
1 9 -5 0
7 6 -8 0
